solution status: optimal solution found
objective value:                                    2
shell_j_thing.elute_in_hole                         1 	(obj:0)
shell_j_thing.collect_hole                          1 	(obj:0)
shell_j_thing.waste_hole                            1 	(obj:0)
shell_j_thing.cell_in_hole                          1 	(obj:0)
shell_j_thing.lysis_in_hole                         1 	(obj:0)
shell_j_thing.buffer_out_hole                       1 	(obj:0)
shell_j_thing.wash_in_hole                          1 	(obj:0)
shell_j_thing.cell_out_hole                         1 	(obj:0)
shell_j_thing.bead_out_hole                         1 	(obj:0)
shell_j_thing.bead_in_hole                          1 	(obj:0)
shell_j_thing.buffer_in_hole                        1 	(obj:0)
thing.lysis_in_hole_z                             -21 	(obj:0)
thing.elute_in_hole_z                             -17 	(obj:0)
thing.elute_in_hole_x                             -15 	(obj:0)
thing.buffer_out_hole_x                           -15 	(obj:0)
thing.buffer_out_hole_y                           -15 	(obj:0)
thing.buffer_out_hole_z                           -22 	(obj:0)
thing.waste_hole_x                                -15 	(obj:0)
thing.waste_hole_y                                -15 	(obj:0)
thing.wash_in_hole_x                              -15 	(obj:0)
thing.wash_in_hole_y                              -15 	(obj:0)
thing.wash_in_hole_z                              -16 	(obj:0)
thing.waste_hole_z                                -20 	(obj:0)
thing.elute_in_hole_y                             -15 	(obj:0)
thing.cell_out_hole_x                             -15 	(obj:0)
thing.cell_out_hole_y                             -15 	(obj:0)
thing.cell_out_hole_z                             -18 	(obj:0)
thing.collect_hole_x                              -15 	(obj:0)
thing.cell_in_hole_x                              -15 	(obj:0)
thing.bead_out_hole_x                             -15 	(obj:0)
thing.bead_out_hole_y                             -15 	(obj:0)
thing.bead_out_hole_z                             -24 	(obj:0)
thing.cell_in_hole_y                              -15 	(obj:0)
thing.cell_in_hole_z                              -13 	(obj:0)
thing.bead_in_hole_x                              -15 	(obj:0)
thing.bead_in_hole_y                              -15 	(obj:0)
thing.bead_in_hole_z                              -19 	(obj:0)
thing.collect_hole_y                              -15 	(obj:0)
thing.collect_hole_z                              -23 	(obj:0)
thing.buffer_in_hole_x                            -15 	(obj:0)
thing.buffer_in_hole_y                            -15 	(obj:0)
thing.buffer_in_hole_z                            -14 	(obj:0)
thing.lysis_in_hole_x                             -15 	(obj:0)
thing.lysis_in_hole_y                             -15 	(obj:0)
x67                                                 2 	(obj:1)
